certificates/rado_a9_c29_N18.cnf
c Rad2 upper bound instance: x1 + 9*x2 - x3 = 29, interval [1,18]
p cnf 18 72
1 4 8 0
-1 -4 -8 0
1 5 17 0
-1 -5 -17 0
2 4 9 0
-2 -4 -9 0
2 5 18 0
-2 -5 -18 0
1 3 0
-1 -3 0
3 4 10 0
-3 -4 -10 0
2 3 4 0
-2 -3 -4 0
4 11 0
-4 -11 0
3 5 0
-3 -5 0
4 5 12 0
-4 -5 -12 0
3 4 6 0
-3 -4 -6 0
4 6 13 0
-4 -6 -13 0
3 5 7 0
-3 -5 -7 0
4 7 14 0
-4 -7 -14 0
3 6 8 0
-3 -6 -8 0
4 8 15 0
-4 -8 -15 0
3 7 9 0
-3 -7 -9 0
4 9 16 0
-4 -9 -16 0
3 8 10 0
-3 -8 -10 0
4 10 17 0
-4 -10 -17 0
3 9 11 0
-3 -9 -11 0
4 11 18 0
-4 -11 -18 0
1 2 12 0
-1 -2 -12 0
3 10 12 0
-3 -10 -12 0
2 13 0
-2 -13 0
3 11 13 0
-3 -11 -13 0
2 3 14 0
-2 -3 -14 0
3 12 14 0
-3 -12 -14 0
2 4 15 0
-2 -4 -15 0
3 13 15 0
-3 -13 -15 0
2 5 16 0
-2 -5 -16 0
3 14 16 0
-3 -14 -16 0
2 6 17 0
-2 -6 -17 0
3 15 17 0
-3 -15 -17 0
2 7 18 0
-2 -7 -18 0
3 16 18 0
-3 -16 -18 0
