certificates/rado_a9_c29_N18.drat
3 -17 0
-17 -18 0
5 17 0
d 5 1 17 0
-18 0
17 0
3 0
-1 0
-5 0
-15 0
2 0
-4 0
-13 0
-14 0
-6 0
8 0
11 0
12 0
0
